c File: instances/22_0.65_3.col
c
c Description: Random graph of size 22 vertices and P(0.65) of edges between any two vertices.
p col 22 231
e 1 2
e 1 4
e 1 6
e 1 7
e 1 8
e 1 9
e 1 10
e 1 11
e 1 12
e 1 13
e 1 15
e 1 16
e 1 18
e 1 19
e 1 21
e 2 3
e 2 4
e 2 6
e 2 7
e 2 15
e 2 17
e 2 18
e 2 19
e 2 20
e 2 21
e 2 22
e 3 4
e 3 9
e 3 10
e 3 11
e 3 12
e 3 14
e 3 15
e 3 16
e 3 17
e 3 20
e 4 6
e 4 7
e 4 8
e 4 9
e 4 10
e 4 12
e 4 14
e 4 21
e 5 6
e 5 7
e 5 8
e 5 9
e 5 10
e 5 11
e 5 12
e 5 13
e 5 15
e 5 16
e 5 20
e 5 21
e 5 22
e 6 8
e 6 10
e 6 11
e 6 13
e 6 14
e 6 15
e 6 16
e 6 17
e 6 18
e 6 19
e 6 20
e 6 21
e 7 9
e 7 10
e 7 12
e 7 14
e 7 16
e 7 17
e 7 19
e 7 20
e 7 22
e 8 12
e 8 13
e 8 15
e 8 16
e 8 17
e 8 18
e 8 19
e 8 20
e 9 10
e 9 13
e 9 14
e 9 17
e 9 19
e 9 20
e 9 21
e 10 12
e 10 13
e 10 15
e 10 16
e 10 18
e 10 21
e 10 22
e 11 13
e 11 14
e 11 16
e 11 17
e 11 18
e 11 20
e 11 22
e 12 13
e 12 14
e 12 15
e 12 16
e 12 17
e 12 18
e 12 20
e 12 21
e 13 14
e 13 15
e 13 17
e 13 18
e 13 19
e 13 20
e 13 22
e 14 16
e 14 17
e 14 19
e 14 20
e 15 16
e 15 19
e 15 21
e 15 22
e 16 17
e 16 19
e 16 20
e 16 21
e 16 22
e 17 18
e 18 19
e 18 20
e 18 21
e 19 20
e 19 21
e 19 22
e 21 22